NAME : traveling-santa-2018-prime-paths.28275.tour
COMMENT : Length = 28275
COMMENT : Found by LKH [Keld Helsgaun] Sun Jun 12 19:59:44 2022
TYPE : TOUR
DIMENSION : 100
TOUR_SECTION
1
31
78
5
35
77
96
75
27
47
63
29
97
41
17
34
44
51
6
69
42
58
61
57
79
94
33
32
18
9
26
60
45
95
54
86
50
19
90
56
48
98
81
52
82
43
13
21
88
67
59
20
62
22
73
74
68
89
23
71
38
36
85
14
39
66
37
16
28
70
53
84
30
49
10
91
93
7
46
72
99
4
64
55
100
40
3
25
8
92
87
80
15
12
65
76
24
11
2
83
-1
EOF
